unsat
(define-fun q1 () Bool false)
(define-fun q2 () Bool true)
(define-fun g1 ((x Obj)) Bool (labelOf x tie))
(define-fun g2 ((x Obj)) Bool (labelOf x tie))
(define-fun f ((x1 Obj) (x2 Obj)) Bool (= x2 x1))
(define-fun c1 () Bool false)
(define-fun c2 () Bool true)
(define-fun c3 () Bool false)
(define-fun c4 () Bool false)
89.80user 1.29system 1:31.09elapsed 99%CPU (0avgtext+0avgdata 348432maxresident)k
0inputs+0outputs (0major+84127minor)pagefaults 0swaps
pplwearingties_abc-1.22.13.1d
